param wl :=
1 1 -1
1 2 0
;
param wubar_mcp := 1 0.2;
param w_i := 1 0.5;
param wsi :=
PV1 1R 1
PV1 1W 1
PV1 1X 1
PV1 1S 0.9479240475903119
PV1NM 1R 1
PV1NM 1W 1
PV1NM 1X 1
PV1NM 1S 0.9479240475903119
WIND 1R 1
WIND 1W 1
WIND 1X 1
WIND 1S 0.9479240475903119
WINDNM 1R 1
WINDNM 1W 1
WINDNM 1X 1
WINDNM 1S 0.9479240475903119
UTIL1 1R 1
UTIL1 1W 1
UTIL1 1X 1
UTIL1 1S 0
;
param wso:=
1R 1
1W 1
1X 1
1S 0.9479240475903119
;
